(set-logic ALL)
(declare-fun var0 () String)
(assert (str.in_re var0 (re.++ (re.* (re.* (str.to_re "00"))) (re.++ (re.union (re.+ (str.to_re "1")) (re.+ (str.to_re "222"))) (re.++ (re.union (re.union (str.to_re "3") (str.to_re "4")) (re.union (str.to_re "55") (str.to_re "6"))) (re.++ (re.union (re.union (str.to_re "7") (str.to_re "88")) (re.union (str.to_re "999") (str.to_re "aaa"))) (re.++ (re.* (re.* (str.to_re "bbb"))) (re.++ (re.+ (re.* (str.to_re "ccc"))) (re.++ (re.union (re.union (str.to_re "d") (str.to_re "e")) (re.union (str.to_re "f") (str.to_re "g"))) (re.++ (re.+ (re.union (str.to_re "hh") (str.to_re "iii"))) (re.++ (re.+ (re.union (str.to_re "jjj") (str.to_re "kk"))) (re.++ (re.* (re.* (str.to_re "lll"))) (re.++ (re.+ (re.union (str.to_re "mm") (str.to_re "n"))) (re.++ (re.* (re.* (str.to_re "o"))) (re.++ (re.* (re.* (str.to_re "pp"))) (re.++ (re.union (re.* (str.to_re "q")) (re.* (str.to_re "rr"))) (re.++ (re.* (re.+ (str.to_re "ss"))) (re.++ (re.union (re.* (str.to_re "t")) (re.* (str.to_re "uu"))) (re.++ (re.+ (re.* (str.to_re "vv"))) (re.++ (re.* (re.* (str.to_re "w"))) (re.++ (re.union (re.* (str.to_re "xx")) (re.* (str.to_re "yyy"))) (re.++ (re.union (re.* (str.to_re "zz")) (re.* (str.to_re "A"))) (re.++ (re.+ (re.* (str.to_re "BBB"))) (re.++ (re.* (re.union (str.to_re "CCC") (str.to_re "D"))) (re.++ (re.union (re.union (str.to_re "EEE") (str.to_re "F")) (re.union (str.to_re "GGG") (str.to_re "H"))) (re.++ (re.union (re.+ (str.to_re "III")) (re.+ (str.to_re "JJ"))) (re.++ (re.+ (re.+ (str.to_re "KKK"))) (re.++ (re.* (re.union (str.to_re "L") (str.to_re "M"))) (re.++ (re.* (re.union (str.to_re "NNN") (str.to_re "O"))) (re.++ (re.+ (re.* (str.to_re "PPP"))) (re.++ (re.* (re.* (str.to_re "Q"))) (re.++ (re.* (re.+ (str.to_re "RRR"))) (re.++ (re.+ (re.+ (str.to_re "SS"))) (re.++ (re.union (re.union (str.to_re "TTT") (str.to_re "UUU")) (re.union (str.to_re "VVV") (str.to_re "WWW"))) (re.++ (re.+ (re.* (str.to_re "XX"))) (re.++ (re.+ (re.* (str.to_re "YYY"))) (re.++ (re.+ (re.* (str.to_re "Z"))) (re.++ (re.+ (re.* (str.to_re "!!"))) (re.++ (re.* (re.* (str.to_re """"""""))) (re.++ (re.+ (re.union (str.to_re "##") (str.to_re "$$$"))) (re.++ (re.* (re.+ (str.to_re "%%%"))) (re.++ (re.union (re.+ (str.to_re "&&&")) (re.+ (str.to_re "''"))) (re.++ (re.* (re.* (str.to_re "("))) (re.++ (re.union (re.union (str.to_re "))") (str.to_re "*")) (re.union (str.to_re "+") (str.to_re ","))) (re.++ (re.+ (re.+ (str.to_re "-"))) (re.++ (re.* (re.* (str.to_re "..."))) (re.++ (re.+ (re.* (str.to_re "///"))) (re.++ (re.+ (re.union (str.to_re "::") (str.to_re ";"))) (re.++ (re.union (re.+ (str.to_re "<")) (re.+ (str.to_re "=="))) (re.++ (re.+ (re.* (str.to_re ">>>"))) (re.++ (re.* (re.+ (str.to_re "??"))) (re.++ (re.* (re.* (str.to_re "@@"))) (re.++ (re.+ (re.union (str.to_re "[[[") (str.to_re "\\\\"))) (re.++ (re.* (re.union (str.to_re "]") (str.to_re "^^"))) (re.++ (re.* (re.+ (str.to_re "__"))) (re.++ (re.+ (re.* (str.to_re "``"))) (re.++ (re.union (re.* (str.to_re "{{")) (re.* (str.to_re "||"))) (re.++ (re.* (re.union (str.to_re "}}}") (str.to_re "~"))) (re.++ (re.union (re.union (str.to_re "0") (str.to_re "11")) (re.union (str.to_re "22") (str.to_re "33"))) (re.++ (re.+ (re.+ (str.to_re "444"))) (re.++ (re.* (re.union (str.to_re "555") (str.to_re "666"))) (re.++ (re.union (re.+ (str.to_re "777")) (re.+ (str.to_re "88"))) (re.++ (re.union (re.union (str.to_re "99") (str.to_re "a")) (re.union (str.to_re "bbb") (str.to_re "c"))) (re.++ (re.+ (re.union (str.to_re "d") (str.to_re "e"))) (re.++ (re.+ (re.+ (str.to_re "ff"))) (re.++ (re.* (re.* (str.to_re "g"))) (re.++ (re.union (re.* (str.to_re "h")) (re.* (str.to_re "iii"))) (re.++ (re.union (re.union (str.to_re "jj") (str.to_re "kkk")) (re.union (str.to_re "l") (str.to_re "m"))) (re.++ (re.+ (re.union (str.to_re "nn") (str.to_re "o"))) (re.++ (re.union (re.* (str.to_re "ppp")) (re.* (str.to_re "qq"))) (re.++ (re.union (re.* (str.to_re "rrr")) (re.* (str.to_re "ss"))) (re.++ (re.+ (re.* (str.to_re "ttt"))) (re.++ (re.* (re.* (str.to_re "uu"))) (re.++ (re.union (re.+ (str.to_re "v")) (re.+ (str.to_re "ww"))) (re.++ (re.union (re.union (str.to_re "xxx") (str.to_re "yy")) (re.union (str.to_re "z") (str.to_re "A"))) (re.++ (re.+ (re.union (str.to_re "BB") (str.to_re "CCC"))) (re.++ (re.union (re.union (str.to_re "DD") (str.to_re "EE")) (re.union (str.to_re "FFF") (str.to_re "GGG"))) (re.++ (re.+ (re.union (str.to_re "HHH") (str.to_re "II"))) (re.++ (re.* (re.* (str.to_re "JJJ"))) (re.++ (re.* (re.+ (str.to_re "K"))) (re.++ (re.+ (re.+ (str.to_re "LLL"))) (re.++ (re.* (re.* (str.to_re "M"))) (re.++ (re.union (re.+ (str.to_re "NN")) (re.+ (str.to_re "OO"))) (re.++ (re.+ (re.* (str.to_re "PP"))) (re.++ (re.+ (re.union (str.to_re "QQ") (str.to_re "R"))) (re.++ (re.+ (re.* (str.to_re "SSS"))) (re.++ (re.* (re.* (str.to_re "TT"))) (re.++ (re.union (re.+ (str.to_re "U")) (re.+ (str.to_re "V"))) (re.++ (re.+ (re.union (str.to_re "W") (str.to_re "XX"))) (re.++ (re.union (re.union (str.to_re "Y") (str.to_re "ZZZ")) (re.union (str.to_re "!") (str.to_re """"""))) (re.++ (re.+ (re.union (str.to_re "##") (str.to_re "$$$"))) (re.++ (re.union (re.* (str.to_re "%%")) (re.* (str.to_re "&&&"))) (re.++ (re.union (re.+ (str.to_re "'''")) (re.+ (str.to_re "((("))) (re.++ (re.* (re.+ (str.to_re ")"))) (re.++ (re.* (re.* (str.to_re "*"))) (re.++ (re.* (re.+ (str.to_re "++"))) (re.++ (re.+ (re.union (str.to_re ",") (str.to_re "-"))) (re.++ (re.* (re.* (str.to_re "."))) (re.++ (re.* (re.union (str.to_re "///") (str.to_re "::"))) (re.++ (re.+ (re.* (str.to_re ";"))) (re.++ (re.+ (re.* (str.to_re "<<"))) (re.++ (re.+ (re.union (str.to_re "==") (str.to_re ">>>"))) (re.++ (re.* (re.* (str.to_re "??"))) (re.++ (re.union (re.+ (str.to_re "@")) (re.+ (str.to_re "[[["))) (re.++ (re.+ (re.union (str.to_re "\\") (str.to_re "]]]"))) (re.++ (re.+ (re.union (str.to_re "^^^") (str.to_re "_"))) (re.++ (re.union (re.+ (str.to_re "`")) (re.+ (str.to_re "{"))) (re.++ (re.union (re.* (str.to_re "||")) (re.* (str.to_re "}}}"))) (re.++ (re.* (re.* (str.to_re "~"))) (re.++ (re.union (re.+ (str.to_re "00")) (re.+ (str.to_re "1"))) (re.++ (re.* (re.union (str.to_re "222") (str.to_re "33"))) (re.++ (re.+ (re.union (str.to_re "444") (str.to_re "55"))) (re.++ (re.union (re.+ (str.to_re "6")) (re.+ (str.to_re "7"))) (re.++ (re.union (re.union (str.to_re "8") (str.to_re "9")) (re.union (str.to_re "aa") (str.to_re "b"))) (re.++ (re.* (re.union (str.to_re "cc") (str.to_re "ddd"))) (re.++ (re.+ (re.+ (str.to_re "ee"))) (re.++ (re.+ (re.+ (str.to_re "f"))) (re.++ (re.+ (re.* (str.to_re "ggg"))) (re.++ (re.union (re.+ (str.to_re "hhh")) (re.+ (str.to_re "iii"))) (re.++ (re.union (re.* (str.to_re "j")) (re.* (str.to_re "kk"))) (re.++ (re.* (re.union (str.to_re "ll") (str.to_re "mm"))) (re.union (re.+ (str.to_re "n")) (re.+ (str.to_re "oo"))))))))))))))))))))))))))))))))))))))))))))))))))))))))))))))))))))))))))))))))))))))))))))))))))))))))))))))))))))))))))))
(check-sat)